CO clathrate hydrate : II - Takeuchi
       1.00000
            17.0500   0.00000   0.00000
            0.00000   17.0500   0.00000
            0.00000   0.00000   17.0500
       O          H          C         X
       168          272          32       8
Cartesian
        5.92487        5.92487        5.92487
        5.32179        5.32179        8.56620
        7.66071        4.23870        9.64929
        9.64929        4.23870        7.66071
        8.56620        5.32179        5.32179
        4.23870        7.66071        9.64929
        4.20371        9.63809        7.64989
        5.26439        8.54844        5.30462
        7.59104        9.68721        4.25266
        9.65672        7.66856        4.26340
       11.38513       11.38513        5.92487
       11.98821       11.98821        8.56620
        9.64929       13.07130        9.64929
        7.66071       13.07130        7.66071
        8.74380       11.98821        5.32179
       13.07130        9.64929        9.64929
       13.10629        7.67190        7.64989
       12.04561        8.76156        5.30462
        5.92487       11.38513       11.38513
        5.32179       11.98821        8.74380
        8.56620       11.98821       11.98821
        5.26439        8.76156       12.00537
        7.59104        7.62279       13.05734
        9.65672        9.64144       13.04660
       11.38513        5.92487       11.38513
       11.98821        5.32179        8.74380
        8.74380        5.32179       11.98821
       12.04561        8.54844       12.00537
       15.71263       15.71263       15.71263
       16.31571       16.31571       13.07130
       13.07130       16.31571       16.31571
       16.37311       13.08906       16.33288
       10.25237       10.25237       15.71263
       13.97679        8.56620       13.97679
       12.89370        9.64929       16.31571
        8.53121       13.96560       13.98761
        9.59189       12.87594       16.33288
       15.71263       10.25237       10.25237
       16.31571        9.64929       12.89370
       16.37311       12.87594        9.63213
       14.04646       14.01471        8.58016
       10.25237       15.71263       10.25237
        9.64929       16.31571       12.89370
       12.89370       16.31571        9.64929
        7.05763        7.05763       15.71263
        3.33321        8.74380       13.97679
        4.41630        7.66071       16.31571
        8.77879        3.34441       13.98761
        7.71811        4.43406       16.33288
        1.59737        1.59737       15.71263
        0.99429        0.99429       13.07130
        4.23870        0.99429       16.31571
        0.93689        4.22094       16.33288
        7.05763        1.59737       10.25237
        7.66071        0.99429       12.89370
        4.41630        0.99429        9.64929
        3.32578        3.34106        8.59090
        1.59737        7.05763       10.25237
        0.99429        7.66071       12.89370
        0.93689        4.43406        9.63213
        7.05763       15.71263        7.05763
        7.66071       16.31571        4.41630
        4.41630       16.31571        7.66071
        8.74380       13.97679        3.33321
        3.32578       13.96894        8.71910
        1.59737       10.25237        7.05763
        0.99429        9.64929        4.41630
        3.33321        8.56620        3.33321
        0.93689       12.87594        7.67788
        7.05763       10.25237        1.59737
        4.41630        9.64929        0.99429
        7.71811       12.87594        0.97713
        1.59737       15.71263        1.59737
        0.99429       16.31571        4.23870
        4.23870       16.31571        0.99429
        0.93689       13.08906        0.97713
       15.71263        7.05763        7.05763
       16.31571        7.66071        4.41630
       13.97679        8.74380        3.33321
       16.37311        4.43406        7.67788
       14.04646        3.29529        8.72984
       10.25237        1.59737        7.05763
        9.64929        0.99429        4.41630
       12.89370        0.99429        7.66071
        8.56620        3.33321        3.33321
       15.71263        1.59737        1.59737
       16.31571        0.99429        4.23870
       13.07130        0.99429        0.99429
       16.37311        4.22094        0.97713
       10.25237        7.05763        1.59737
       12.89370        7.66071        0.99429
        9.59189        4.43406        0.97713
       11.38513        2.73013       14.57987
       11.98821        3.33321       17.22120
       12.04561        0.10656       13.95962
        2.73013       11.38513       14.57987
        3.33321       11.98821       17.22120
        0.08880       11.98821       13.97679
       14.57987        5.92487       14.57987
       13.97679        5.32179       17.22120
       17.22120        5.32179       13.97679
        5.92487       14.57987       14.57987
        5.32179       13.97679       17.22120
        5.26439       17.20344       13.95962
        2.73013        2.73013        5.92487
        0.08880        3.33321        5.32179
        3.39061        0.10656        5.30462
        2.73013       14.57987       11.38513
        0.08880       13.97679       11.98821
        3.39061       17.20344       12.00537
       14.57987        2.73013       11.38513
       17.22120        3.33321       11.98821
       13.91939        0.10656       12.00537
       14.57987       14.57987        5.92487
       17.22120       13.97679        5.32179
       13.91939       17.20344        5.30462
        5.92487        2.73013        2.73013
        5.32179        3.33321        0.08880
        5.26439        0.10656        3.35037
        2.73013        5.92487        2.73013
        3.33321        5.32179        0.08880
        0.08880        5.32179        3.33321
       14.57987       11.38513        2.73013
       13.97679       11.98821        0.08880
       17.22120       11.98821        3.33321
       11.38513       14.57987        2.73013
       11.98821       13.97679        0.08880
       12.04561       17.20344        3.35037
        0.00000        0.00000        0.00000
        4.32748        4.31665        4.31671
        8.65500        8.65500        0.00000
        0.00000        8.65500        8.65500
        8.65500        0.00000        8.65500
       12.98252       12.99335        4.31671
        4.32748       12.99335       12.99329
       12.98252        4.31665       12.99330
        9.19980        7.65500        8.65400
        9.19980        9.65500        8.65400
        4.87080        3.32700       12.98400
        4.87080        5.32700       12.98400
       12.99100        4.87580        3.32600
       12.99100        4.87580        5.32600
        3.31900       13.53180        4.32600
        5.31900       13.53180        4.32600
       12.98800       11.98300       13.53280
       12.98800       13.98300       13.53280
        0.707        0.707         9.20380
        -0.707        -0.707        9.20380
        9.20380         0.707        0.707
        9.20380         -0.707        -0.707
        0.707        9.20380        0.707
        -0.707        9.20380         -0.707
        6.49100        2.16500        7.04080
        2.15900        6.49100        7.03980
        7.03380        6.49400        2.16400
       11.37280        2.16400       10.81900
        2.15900       11.36580       10.81800
       10.81900       11.36980        2.16400
       10.82200       15.14700        7.03980
       15.15400       10.82100        7.03880
        6.48900       15.14400       11.36780
       15.15400        6.49000       11.36780
        6.48400       11.36480       15.14600
       10.82000        7.03880       15.14600
       15.09700        2.21300       15.90780
        2.16400       15.14700       15.69580
       15.69480       15.14700        2.16300
        2.71280        2.16300        2.16300
        5.75998        6.83792        5.68955
        6.84272        5.77984        5.69518
        5.53914        5.52632        7.65672
        6.12716        4.95217        8.92812
        8.03033        4.60062       10.45466
        7.45618        3.32922        9.86664
        8.95131        4.25234        8.31559
        9.24946        4.61362        6.87598
        8.58169        4.66966        4.62128
        8.94432        6.10740        4.92673
        4.60062        6.85534        9.27967
        3.32922        7.44336        9.85382
        4.22695        8.98285        8.34728
        4.58643       10.42187        8.04415
        4.86620        8.92706        6.08841
        4.56904        8.57135        4.64720
        6.78722        9.29891        4.59812
        7.39129        9.87671        3.33592
        9.00013        8.36495        4.27642
       10.44563        8.07583        4.62115
       11.60951       11.60961        6.82792
       11.94514       11.94889        5.39121
       11.19030       12.26079        9.01927
       12.26079       11.19030        9.01927
        8.97274       13.09949        8.97274
        9.83821       13.99046        9.83821
        8.03033       12.70938        6.85534
        7.45618       13.98078        7.44336
        9.65123       11.75854        5.52191
        8.36822       11.18681        4.95720
       12.71605        9.23914       10.43784
       13.06858        8.95167        8.99389
       14.01431        7.44697        7.44707
       12.73716        6.86979        8.01947
       11.82119        9.66486        5.52804
       12.40739        8.39732        6.11250
        5.68711       10.48536       11.60901
        5.36855       11.92674       11.94495
        6.12716       12.35783        8.38188
        5.53914       11.78368        9.65328
        8.92812       12.35783       11.18284
        7.65672       11.78368       11.77086
        4.56555        8.73596       12.65898
        4.87305        8.37812       11.22048
        7.87445        6.83584       12.59191
        6.79843        7.90076       12.59828
        8.95375        8.99183       13.03861
        9.25796       10.43107       12.68094
       11.62289        6.82464       11.60901
       11.94145        5.38326       11.94495
       11.77086        5.52632        9.65328
       11.18284        4.95217        8.38188
        9.66128        5.51484       11.79534
        8.77794        4.64916       12.66838
       11.25391        8.92365       12.39094
       12.69038        8.57004       12.71250
       14.79521       15.93879       15.86570
       15.86570       15.93879       14.79521
       16.71554       15.53098       12.69638
       17.01369       16.97059       13.05766
       12.71622       16.72167       15.52492
       13.05840       17.01388       16.97040
       17.03457       13.12668       17.02374
       16.16997       14.00539       16.14497
       10.10154       10.02603       14.79489
       11.16961       10.02692       15.86779
       13.70421        9.01927       14.77470
       14.77470        9.01927       13.70421
       13.26862       10.43402       16.71554
       12.90734        8.99441       17.01369
        8.89891       13.56350       14.77460
        8.55663       13.27135       13.32912
       10.39794       13.24711       16.69170
        9.81892       11.97105       16.11872
       14.79478       10.10734       10.02268
       15.87752       11.16543       10.01705
       16.11118        9.86664       11.98422
       16.68533       10.45466       13.25562
       15.57951       13.33442        9.35602
       16.64109       13.32245       10.43528
       13.35308       13.35482        8.58260
       13.63522       14.79630        8.94925
       11.15567       15.93656       10.02844
        9.71933       16.27481        9.69019
        9.27152       15.51360       13.25446
        9.85323       16.09707       11.98439
       12.90660       17.01388        8.99459
       13.24878       16.72167       10.44008
        7.26711        7.27823       14.80506
        7.62476        7.62521       16.23460
        3.60579        8.29073       14.77470
        2.53530        8.29073       13.70421
        4.05438        6.85534       16.68533
        5.32578        7.44336       16.11118
        8.33196        3.61954       14.78816
        8.31747        2.55096       13.71586
        6.91206        4.06289       16.69170
        7.49108        5.33895       16.11872
        1.43248        2.51042       15.94795
        2.51522        1.45234       15.94232
        0.62467        1.79966       12.70938
        1.19882        1.21164       13.98078
        4.59378        0.58833       15.52492
        4.25160        0.29612       16.97040
        1.74161        4.66336       16.60293
        0.67474        4.66932       15.52885
        7.59067        1.03519        9.69019
        6.15433        1.37344       10.02844
        8.33726        0.31774       12.86551
        7.47179        1.18321       11.97454
        3.95982        1.79483        9.39044
        3.98001        0.71929       10.45568
        4.00494        4.01486        8.55977
        3.13755        3.14743        7.67258
        1.36010        6.15760       10.02904
        1.03889        7.59862        9.69410
        1.18321        7.47179       11.97454
        0.31774        8.33726       12.86551
        1.73034        4.05962        9.24942
        0.29735        4.42012        8.92008
        6.14021       15.93879        7.21070
        7.21070       15.93879        6.14021
        8.35869       16.97059        4.40266
        8.06054       15.53098        4.04138
        4.03818       15.53010        8.05577
        4.40081       16.96784        8.36122
        8.73090       13.27862        3.98791
        8.38872       13.57083        2.54242
        2.53558       13.56369        8.36192
        3.97867       13.26900        8.71198
        2.51469       10.10393        7.28723
        1.43557       11.16569        7.29405
        1.19882        9.86664        5.32578
        0.62467       10.45466        4.05438
        3.11586        7.65672        3.12868
        2.52784        8.92812        3.70283
        0.54043       13.26009        6.89591
        0.24131       12.89787        8.33508
        7.59067        9.69019        1.03519
        6.15433       10.02844        1.37344
        4.40266        8.95131        0.33941
        4.04138        9.24946        1.77902
        8.37957       12.83832        0.28627
        7.51497       11.95961        1.16503
        1.37344       15.93656        2.50067
        1.03519       16.27481        1.06433
        1.78375       16.71722        4.60170
        0.34106       17.01522        4.25281
        3.32922       16.09836        1.19882
        4.60062       15.51034        0.62467
        1.16392       13.99395        1.19129
        1.74294       12.71789        0.61831
       15.93656        7.28156        6.15433
       16.27481        7.61981        7.59067
       16.71554        6.87598        4.04138
       17.01369        8.31559        4.40266
       14.76322        8.36955        3.73032
       13.32694        8.73773        4.03598
       16.13596        5.33719        7.46730
       15.57173        4.05295        8.03674
       13.36439        3.96665        8.74704
       14.22237        3.10822        9.65195
       11.16979        1.44430        7.28379
       10.09930        2.51479        7.28379
        9.85382        1.21164        5.32578
        9.27967        1.79966        4.05438
       13.32906        0.71297        6.85600
       13.36996        1.78001        7.92915
        8.91702        3.71009        2.52629
        7.65537        3.12538        3.12483
       15.94990        2.49740        1.37404
       16.27111        1.05638        1.03910
       15.50775        0.62425        4.59437
       16.10454        1.20109        3.32828
       12.72048        0.61741        1.80121
       13.98213        1.20212        1.20267
       15.58103        4.59514        0.59135
       17.01490        4.23351        0.26707 
       10.00587        6.14631        1.43937
       10.02890        7.21098        2.51540
       11.98422        7.45618        1.21164
       13.25562        8.03033        1.79966
       10.38397        4.05986        0.59135
        8.95010        4.42149        0.26707
       11.53976        2.95616       15.49706
       10.46925        2.96231       14.42660
       12.68619        3.98809       17.23484
       12.38804        2.54848       17.59612
       11.23956       -0.26461       13.60080
       11.81858        1.01145       14.17378
        2.95629       10.46771       14.42680
        2.95629       11.53820       15.49729
        3.73304       11.20348       17.59612
        4.03119       12.64309       17.23484
       -0.26202       12.36509       14.78371
        0.99963       11.78038       14.18517
       14.35436        6.82740       14.35447
       14.01672        5.38993       14.02047
       13.60717        6.12716       17.58312
       14.18132        5.53914       16.31172
       17.58312        6.12716       13.60717
       16.31172        5.53914       14.18132
        6.84219       14.43143       14.35027
        5.76307       15.49319       14.34345
        5.53296       14.18359       16.31078
        6.12975       13.60675       17.57687
        6.05647       17.57764       13.57385
        4.62260       17.21601       13.24956
        1.81228        2.87516        5.69518
        2.89502        1.81708        5.68955
       -0.35044        3.60538        6.12754
       -0.36827        2.53489        5.05719
        3.78707       -0.27759        6.08659
        4.08619        0.08463        4.64742
        2.95217       14.35267       10.48219
        3.29371       14.01991       11.91903
        1.00796       14.16571       11.79929
        0.11699       13.30024       12.66476
        3.16358       16.29855       11.79121
        2.58456       17.57461       12.36419
       15.49772        2.87516       11.61482
       14.41498        1.81707       11.62045
       17.57628        3.73917       11.19742
       17.23410        4.03138       12.64291
       13.27760        0.09399       12.71543
       14.71147       -0.26764       12.39115
       15.49674       14.35765        5.76300
       14.44142       14.36965        6.84838
       17.59612       14.76152        4.92196
       17.23484       13.32191        4.62381
       13.25793       17.16582        4.61376
       14.12253       16.28711        5.49253
        5.36421        3.27049        3.28682
        5.68810        1.82983        2.95291
        5.52632        3.11586        0.99828
        4.95217        2.52784       -0.27312
        6.06911       -0.33586        3.62042
        5.00224       -0.34182        2.54634
        1.82683        5.70085        2.95395
        3.26316        5.35892        3.28854
        4.00976        4.64524        0.11699
        3.14429        5.51071        1.00796
        0.07590        4.62362        3.98791
       -0.26628        4.91583        2.54242
       14.35371       10.46771        2.88320
       14.35371       11.53820        1.81271
       13.32356       12.68772        0.07469
       14.76625       12.38972       -0.27420
       16.31037       11.78038        3.12483
       17.57202       12.36509        2.52629
       10.48234       14.35492        2.95508
       11.91945       14.01830        3.29172
       12.35783       14.78216       -0.27312
       11.78368       14.19414        0.99828
       11.23956       17.57461        3.70919
       11.81858       16.29855        3.13621
       -0.53524       -0.53524       -0.58588
        0.53524        0.53524       -0.58588
        4.86142        4.85453        4.90137
        3.79093        3.78405        4.90380
        9.24088        9.19024       -0.53524
        9.24088        8.11976        0.53524
        0.53524        9.24088        8.11976
       -0.53524        9.24088        9.19024
        8.11976       -0.53524        8.06912
        9.19024        0.53524        8.06912
       13.56838       13.52462        4.85592
       13.56837       12.45413        3.78543
        4.86407       13.52592       13.58037
        3.79358       12.45544       13.57796
       12.44593        3.72957       13.52588
       13.51643        3.73198       12.45540
        8.10220        7.65500        8.65400
        8.10220        9.65500        8.65400
        3.77320        3.32700       12.98400
        3.77320        5.32700       12.98400
       12.99100        3.77820        3.32600
       12.99100        3.77820        5.32600
        3.31900       12.43420        4.32600
        5.31900       12.43420        4.32600
       12.98800       11.98300       12.43520
       12.98800       13.98300       12.43520
        0.707        0.707        8.10620
        -0.707        -0.707          8.10620
        8.10620        0.707          0.707
        8.10620        -0.707        -0.707
        0.707         8.10620         0.707
        -0.707        8.10620        -0.707
        6.49100        2.16500        5.94320
        2.15900        6.49100        5.94220
        5.93620        6.49400        2.16400
       10.27520        2.16400       10.81900
        2.15900       10.26820       10.81800
       10.81900       10.27220        2.16400
       10.82200       15.14700        5.94220
       15.15400       10.82100        5.94120 
        6.48900       15.14400       10.27020
       15.15400        6.49000       10.27020
        6.48400       10.26720       15.14600
       10.82000        5.94120       15.14600
       15.09700        2.21300       14.81020
        2.16400       15.14700       14.59820
       14.59720       15.14700        2.16300
        1.61520        2.16300        2.16300
        8.651          8.65500        8.65400
        12.98800       12.98300       12.984
        4.31900        12.983        4.32600
        12.99100       4.327         4.32600
        4.322          4.32700      12.98400
        8.655           17.05000   0.00000
        17.05000   0.00000   8.655
        8.655        0.00000        17.05000











