 CO clathrate hydrate : sI-Takeuchi     
   1.00000000000000     
    11.8019999999999996    0.0000000000000000    0.0000000000000000
     0.0000000000000000   11.8019999999999996    0.0000000000000000
     0.0000000000000000    0.0000000000000000   11.8019999999999996
   O    H    C 
    54    92     8
Direct
  0.0063135744213555  0.0100779948815906  0.2568380072789394
  0.0084152793109689  0.0067494289028568  0.7574310648638473
  0.0031225543640401  0.1991531063344052  0.1240968171357721
  0.0013009417698424  0.1969279827658677  0.8903153175244923
  0.0137022651204837  0.8200546571796854  0.1243212431245223
  0.0133013257843289  0.8179996475433807  0.8911519154416839
  0.5046816282312250  0.2571887966715660  0.0056482222802190
  0.5097681592585014  0.7579222173954776  0.0120161280325250
  0.5044468841109724  0.1262065732764454  0.1988840040620291
  0.5046736901604618  0.8937597117977525  0.2015407175572898
  0.5118471846224970  0.1212017593945418  0.8166528492364493
  0.5116119011232830  0.8886818798768981  0.8188173737070440
  0.3144814331306369  0.3912833586364218  0.0126779480460097
  0.3198784088824778  0.6237734672808081  0.0056243094142718
  0.1942345846597380  0.0063857553794497  0.3924086311463661
  0.1983429164704575  0.0127763938507931  0.6246756408190652
  0.1899268806913152  0.3189846412096295  0.1941434509162115
  0.1874734838144491  0.3220672458885678  0.8298557224789402
  0.1936752852204067  0.6868961924260281  0.1907980025188953
  0.1929705770022703  0.6871340679796827  0.8212445086681326
  0.3243674736597666  0.1892352295377682  0.3313160575840360
  0.3220929153233556  0.8223636334677830  0.3272422114398862
  0.3260471474776450  0.1935946774298260  0.6966315495271743
  0.3247062340196608  0.8292090979545164  0.6943485000830477
  0.6935360030716617  0.3926286838552188  0.0107597891993914
  0.7005924704876110  0.6253628693108352  0.0043317181578077
  0.8174322686297889  0.0027100434224896  0.3915620269885886
  0.8194604772968879  0.0092654347589859  0.6237102764656173
  0.8224108469813944  0.3294387936756786  0.1933893454557635
  0.8207180997367796  0.3307790907091989  0.8257795230868252
  0.8281296107247182  0.6943334756424508  0.1864287209248271
  0.8268713351657340  0.6965020869725945  0.8233003524163659
  0.6925718254509645  0.1873257111659982  0.3216947074661672
  0.6905001251756643  0.8214171267360082  0.3213902114564191
  0.6930373635406997  0.1935733647163284  0.6902260792642542
  0.6915814776124334  0.8257627109521978  0.6869181647854905
  0.2590308311685353  0.5106965731631611  0.5033060851397598
  0.7582645715438726  0.5047361670028121  0.5122456715184681
  0.1267365423418617  0.5016558164033369  0.6950229032763878
  0.8942972814911325  0.5123216756752312  0.7003854550059878
  0.1222332520859015  0.5037858887946254  0.3156258593344215
  0.8902092503467028  0.5147193135859344  0.3202940893345197
  0.3919702839733214  0.3197009891235686  0.5131238911123469
  0.6241728121387906  0.3151448666453379  0.5030847558266931
  0.3927507303909014  0.7002124345371243  0.5134099181174595
  0.6248386226910498  0.6955802391170846  0.5050040073565347
  0.2892760964307213  0.9571330886136635  0.9750059552037994
  0.7874674988757231  0.9695161936361537  0.9608222478863730
  0.0050718597708856  0.2571362956065685  0.5689126324731353
  0.0018860688881332  0.7672440661077468  0.5606736007007668
  0.5152223598752289  0.5605040068584091  0.2518332842190718
  0.5289116574836762  0.5667273733088074  0.7551906366795953
  0.0060738823324817  0.5672783594801598  0.9988946963224359
  0.5656327024683948  0.0138850946172733  0.5217034883497400
  0.9380479692082472  0.0097410521039744  0.3060640849025021
  0.0024019626111719  0.0788496609403396  0.2082203598371621
  0.0769554013144437  0.0070901646457580  0.7085311168381025
  0.0126202439063769  0.9383649238279033  0.8064908882752955
  0.9379179669908841  0.2481583945835147  0.1450277478681707
  0.0019939245190109  0.1916888121620066  0.0403607900937986
  0.0017196704526183  0.1269194655503350  0.8433929624031828
  0.9350738697553784  0.2427494351914571  0.8660780538466814
  0.0126093532885732  0.8900416247048204  0.1713166249112077
  0.0795854951846856  0.7742769753726999  0.1497604437988387
  0.0786195805618476  0.7693227167416268  0.8697992882294029
  0.0150602855412099  0.8258287623387824  0.9748824396135785
  0.4360474949474387  0.3058182781002023  0.0032063512852260
  0.5044126732617555  0.2082216080311605  0.9372497608505765
  0.5787027478976959  0.7096647746830096  0.0140637461755687
  0.5103985680108953  0.8071164101986078  0.0802690312988884
  0.5031765813905199  0.1713485661153042  0.1278156325439435
  0.4384059303822317  0.1513113100054606  0.2447832523843148
  0.4369409219855706  0.8715642353520577  0.2465481976057408
  0.5027595437422470  0.9775542599020820  0.1932259018538586
  0.5790365100495247  0.1438665394081191  0.7710643470735202
  0.5140766009881887  0.0374006273873639  0.8245330937940041
  0.5126098679767680  0.8436834034569397  0.8899989065310789
  0.5779775488354230  0.8638943655487272  0.7731331672255829
  0.3230417619517567  0.4749593790889066  0.0129243265329068
  0.2709242635755638  0.3694250593816367  0.0815441167072267
  0.3901009557935861  0.6703846990760116  0.0072742666077052
  0.2767929441080050  0.6469175757575962  0.9369431705660828
  0.1246861698178722  0.0078515013929314  0.3447610930582797
  0.2379695916474815  0.9380947322155160  0.3696091201378202
  0.1909772482176777  0.0121379036541455  0.5408387219725362
  0.2438574724352846  0.0805430930200621  0.6453617118218575
  0.2367299538369275  0.2692868754807103  0.2435977333888474
  0.1247632263047349  0.2727590890716800  0.1669231625864963
  0.2295832985619377  0.3478205843332720  0.8981017300255081
  0.1209495590158714  0.2771470781908315  0.8559191742461365
  0.2384290871345649  0.6608273744644374  0.1243140317249681
  0.1668969497056323  0.6186245715684671  0.2322368402671706
  0.2397524849521574  0.7375938152841968  0.7725024614430852
  0.1694071570261859  0.6217230928732613  0.7737616960002153
  0.2793377586565698  0.1232202379717086  0.3582121793035902
  0.3476378586699699  0.2338641570149391  0.3987949418540657
  0.3490685367230972  0.7779805752606517  0.3935057757320825
  0.2766163220848973  0.7697380915008520  0.2795533506163226
  0.3920973936524325  0.1669194279294869  0.7416422725528033
  0.2777208984206165  0.2393450872010478  0.7484782993558828
  0.2816954575860948  0.8972202207219314  0.6693842798871712
  0.3898412941881418  0.8552462216574599  0.7411902766294791
  0.6236559198301966  0.3454591792933495  0.0095113132370190
  0.7372783432778895  0.3696106466615452  0.0791276811552756
  0.6911925021607267  0.5418064913620416  0.0039855102889026
  0.7446709098651031  0.6466676687013256  0.9356301643848022
  0.8240457623650935  0.0037347424602381  0.4754788352512935
  0.7717752790688175  0.9350050445387288  0.3708625531900273
  0.8897685012102545  0.0076652075602245  0.6702573182821526
  0.7764590080860916  0.0776984481578953  0.6473581407474084
  0.7766871015822793  0.2783320482729491  0.2425425691676319
  0.8466474630135216  0.3943011862828935  0.2411998164044193
  0.7755849316995473  0.3568360584866645  0.8920103766858091
  0.8478501829180991  0.3988419255784476  0.7841523871276868
  0.7859844884240015  0.6682586548591205  0.1183299710854367
  0.8945220031981719  0.7393026766873416  0.1601763832826909
  0.7799311935574651  0.7459086811017324  0.7736357636414541
  0.8921462342328735  0.7429886712299612  0.8497128123953653
  0.7354455739920307  0.1191383878583012  0.3463086503863739
  0.6271558996977342  0.1611761451574366  0.2753479298887617
  0.6243339372646799  0.8484671278218289  0.2767227009722789
  0.7387474496526595  0.7762273998033656  0.2689439678811296
  0.6664293533462842  0.2375160539547664  0.6234835574990855
  0.7385313479685236  0.2465130666540453  0.7375101217760288
  0.7361585318656440  0.8920372579986096  0.6598747695782424
  0.6684221682496044  0.7811194611408619  0.6193832661383954
  0.3069096608286995  0.5799622058877276  0.5037656119281325
  0.2097882968704904  0.5126085509876084  0.4350436002172602
  0.7103039546458706  0.4355595107881843  0.5121720885633904
  0.8072814806244903  0.5033078545425089  0.5807069139105658
  0.1495047650907229  0.4340859446795129  0.7398585917612260
  0.1724159696818814  0.5018054227285568  0.6243665022890689
  0.8759766729304829  0.5830365519695250  0.7426737530571883
  0.9778760298273125  0.5099592685886466  0.6907867735743400
  0.1407909556526626  0.4329731710273224  0.2736074424474927
  0.0385982996655015  0.5061324003524253  0.3248328281639569
  0.8672107474629139  0.5823583732995875  0.2756308773444656
  0.8442940252906402  0.5140334400098946  0.3908081367141540
  0.3464461606184067  0.3904190884640503  0.5096570434961678
  0.3689214748432924  0.2791454300121763  0.5833760552382556
  0.5404563232221533  0.3237213496939637  0.5037944578084252
  0.6441071519871040  0.2687376269236640  0.4355530298966636
  0.4764658467624963  0.6912488658079158  0.5128169116655005
  0.3729558896516931  0.7467327440262009  0.5808210058388603
  0.6701198646108057  0.6246950574371574  0.5078065689417336
  0.6478383704698841  0.7363930563978814  0.4349042406166294
  0.2454432319167366  0.0284172127193444  0.0235283748314901
  0.7466679929988662  0.0252137910194890  0.0285681594154609
  0.9903024096460877  0.2559200085936837  0.4733166163663077
  0.0012880389571531  0.7662766907131815  0.4639225423421572
  0.4997553161447792  0.4651265971753378  0.2568619717380656
  0.5014863012133899  0.4747535338829037  0.7672749115724111
  0.0092787037502611  0.4714778749193598  0.0118029230317116
  0.4716815168376886  0.0061933536061995  0.5000136677092050
 
  0.00000000E+00  0.00000000E+00  0.00000000E+00
  0.00000000E+00  0.00000000E+00  0.00000000E+00
  0.00000000E+00  0.00000000E+00  0.00000000E+00
  0.00000000E+00  0.00000000E+00  0.00000000E+00
  0.00000000E+00  0.00000000E+00  0.00000000E+00
  0.00000000E+00  0.00000000E+00  0.00000000E+00
  0.00000000E+00  0.00000000E+00  0.00000000E+00
  0.00000000E+00  0.00000000E+00  0.00000000E+00
  0.00000000E+00  0.00000000E+00  0.00000000E+00
  0.00000000E+00  0.00000000E+00  0.00000000E+00
  0.00000000E+00  0.00000000E+00  0.00000000E+00
  0.00000000E+00  0.00000000E+00  0.00000000E+00
  0.00000000E+00  0.00000000E+00  0.00000000E+00
  0.00000000E+00  0.00000000E+00  0.00000000E+00
  0.00000000E+00  0.00000000E+00  0.00000000E+00
  0.00000000E+00  0.00000000E+00  0.00000000E+00
  0.00000000E+00  0.00000000E+00  0.00000000E+00
  0.00000000E+00  0.00000000E+00  0.00000000E+00
  0.00000000E+00  0.00000000E+00  0.00000000E+00
  0.00000000E+00  0.00000000E+00  0.00000000E+00
  0.00000000E+00  0.00000000E+00  0.00000000E+00
  0.00000000E+00  0.00000000E+00  0.00000000E+00
  0.00000000E+00  0.00000000E+00  0.00000000E+00
  0.00000000E+00  0.00000000E+00  0.00000000E+00
  0.00000000E+00  0.00000000E+00  0.00000000E+00
  0.00000000E+00  0.00000000E+00  0.00000000E+00
  0.00000000E+00  0.00000000E+00  0.00000000E+00
  0.00000000E+00  0.00000000E+00  0.00000000E+00
  0.00000000E+00  0.00000000E+00  0.00000000E+00
  0.00000000E+00  0.00000000E+00  0.00000000E+00
  0.00000000E+00  0.00000000E+00  0.00000000E+00
  0.00000000E+00  0.00000000E+00  0.00000000E+00
  0.00000000E+00  0.00000000E+00  0.00000000E+00
  0.00000000E+00  0.00000000E+00  0.00000000E+00
  0.00000000E+00  0.00000000E+00  0.00000000E+00
  0.00000000E+00  0.00000000E+00  0.00000000E+00
  0.00000000E+00  0.00000000E+00  0.00000000E+00
  0.00000000E+00  0.00000000E+00  0.00000000E+00
  0.00000000E+00  0.00000000E+00  0.00000000E+00
  0.00000000E+00  0.00000000E+00  0.00000000E+00
  0.00000000E+00  0.00000000E+00  0.00000000E+00
  0.00000000E+00  0.00000000E+00  0.00000000E+00
  0.00000000E+00  0.00000000E+00  0.00000000E+00
  0.00000000E+00  0.00000000E+00  0.00000000E+00
  0.00000000E+00  0.00000000E+00  0.00000000E+00
  0.00000000E+00  0.00000000E+00  0.00000000E+00
  0.00000000E+00  0.00000000E+00  0.00000000E+00
  0.00000000E+00  0.00000000E+00  0.00000000E+00
  0.00000000E+00  0.00000000E+00  0.00000000E+00
  0.00000000E+00  0.00000000E+00  0.00000000E+00
  0.00000000E+00  0.00000000E+00  0.00000000E+00
  0.00000000E+00  0.00000000E+00  0.00000000E+00
  0.00000000E+00  0.00000000E+00  0.00000000E+00
  0.00000000E+00  0.00000000E+00  0.00000000E+00
  0.00000000E+00  0.00000000E+00  0.00000000E+00
  0.00000000E+00  0.00000000E+00  0.00000000E+00
  0.00000000E+00  0.00000000E+00  0.00000000E+00
  0.00000000E+00  0.00000000E+00  0.00000000E+00
  0.00000000E+00  0.00000000E+00  0.00000000E+00
  0.00000000E+00  0.00000000E+00  0.00000000E+00
  0.00000000E+00  0.00000000E+00  0.00000000E+00
  0.00000000E+00  0.00000000E+00  0.00000000E+00
  0.00000000E+00  0.00000000E+00  0.00000000E+00
  0.00000000E+00  0.00000000E+00  0.00000000E+00
  0.00000000E+00  0.00000000E+00  0.00000000E+00
  0.00000000E+00  0.00000000E+00  0.00000000E+00
  0.00000000E+00  0.00000000E+00  0.00000000E+00
  0.00000000E+00  0.00000000E+00  0.00000000E+00
  0.00000000E+00  0.00000000E+00  0.00000000E+00
  0.00000000E+00  0.00000000E+00  0.00000000E+00
  0.00000000E+00  0.00000000E+00  0.00000000E+00
  0.00000000E+00  0.00000000E+00  0.00000000E+00
  0.00000000E+00  0.00000000E+00  0.00000000E+00
  0.00000000E+00  0.00000000E+00  0.00000000E+00
  0.00000000E+00  0.00000000E+00  0.00000000E+00
  0.00000000E+00  0.00000000E+00  0.00000000E+00
  0.00000000E+00  0.00000000E+00  0.00000000E+00
  0.00000000E+00  0.00000000E+00  0.00000000E+00
  0.00000000E+00  0.00000000E+00  0.00000000E+00
  0.00000000E+00  0.00000000E+00  0.00000000E+00
  0.00000000E+00  0.00000000E+00  0.00000000E+00
  0.00000000E+00  0.00000000E+00  0.00000000E+00
  0.00000000E+00  0.00000000E+00  0.00000000E+00
  0.00000000E+00  0.00000000E+00  0.00000000E+00
  0.00000000E+00  0.00000000E+00  0.00000000E+00
  0.00000000E+00  0.00000000E+00  0.00000000E+00
  0.00000000E+00  0.00000000E+00  0.00000000E+00
  0.00000000E+00  0.00000000E+00  0.00000000E+00
  0.00000000E+00  0.00000000E+00  0.00000000E+00
  0.00000000E+00  0.00000000E+00  0.00000000E+00
  0.00000000E+00  0.00000000E+00  0.00000000E+00
  0.00000000E+00  0.00000000E+00  0.00000000E+00
  0.00000000E+00  0.00000000E+00  0.00000000E+00
  0.00000000E+00  0.00000000E+00  0.00000000E+00
  0.00000000E+00  0.00000000E+00  0.00000000E+00
  0.00000000E+00  0.00000000E+00  0.00000000E+00
  0.00000000E+00  0.00000000E+00  0.00000000E+00
  0.00000000E+00  0.00000000E+00  0.00000000E+00
  0.00000000E+00  0.00000000E+00  0.00000000E+00
  0.00000000E+00  0.00000000E+00  0.00000000E+00
  0.00000000E+00  0.00000000E+00  0.00000000E+00
  0.00000000E+00  0.00000000E+00  0.00000000E+00
  0.00000000E+00  0.00000000E+00  0.00000000E+00
  0.00000000E+00  0.00000000E+00  0.00000000E+00
  0.00000000E+00  0.00000000E+00  0.00000000E+00
  0.00000000E+00  0.00000000E+00  0.00000000E+00
  0.00000000E+00  0.00000000E+00  0.00000000E+00
  0.00000000E+00  0.00000000E+00  0.00000000E+00
  0.00000000E+00  0.00000000E+00  0.00000000E+00
  0.00000000E+00  0.00000000E+00  0.00000000E+00
  0.00000000E+00  0.00000000E+00  0.00000000E+00
  0.00000000E+00  0.00000000E+00  0.00000000E+00
  0.00000000E+00  0.00000000E+00  0.00000000E+00
  0.00000000E+00  0.00000000E+00  0.00000000E+00
  0.00000000E+00  0.00000000E+00  0.00000000E+00
  0.00000000E+00  0.00000000E+00  0.00000000E+00
  0.00000000E+00  0.00000000E+00  0.00000000E+00
  0.00000000E+00  0.00000000E+00  0.00000000E+00
  0.00000000E+00  0.00000000E+00  0.00000000E+00
  0.00000000E+00  0.00000000E+00  0.00000000E+00
  0.00000000E+00  0.00000000E+00  0.00000000E+00
  0.00000000E+00  0.00000000E+00  0.00000000E+00
  0.00000000E+00  0.00000000E+00  0.00000000E+00
  0.00000000E+00  0.00000000E+00  0.00000000E+00
  0.00000000E+00  0.00000000E+00  0.00000000E+00
  0.00000000E+00  0.00000000E+00  0.00000000E+00
  0.00000000E+00  0.00000000E+00  0.00000000E+00
  0.00000000E+00  0.00000000E+00  0.00000000E+00
  0.00000000E+00  0.00000000E+00  0.00000000E+00
  0.00000000E+00  0.00000000E+00  0.00000000E+00
  0.00000000E+00  0.00000000E+00  0.00000000E+00
  0.00000000E+00  0.00000000E+00  0.00000000E+00
  0.00000000E+00  0.00000000E+00  0.00000000E+00
  0.00000000E+00  0.00000000E+00  0.00000000E+00
  0.00000000E+00  0.00000000E+00  0.00000000E+00
  0.00000000E+00  0.00000000E+00  0.00000000E+00
  0.00000000E+00  0.00000000E+00  0.00000000E+00
  0.00000000E+00  0.00000000E+00  0.00000000E+00
  0.00000000E+00  0.00000000E+00  0.00000000E+00
  0.00000000E+00  0.00000000E+00  0.00000000E+00
  0.00000000E+00  0.00000000E+00  0.00000000E+00
  0.00000000E+00  0.00000000E+00  0.00000000E+00
  0.00000000E+00  0.00000000E+00  0.00000000E+00
  0.00000000E+00  0.00000000E+00  0.00000000E+00
  0.00000000E+00  0.00000000E+00  0.00000000E+00
  0.00000000E+00  0.00000000E+00  0.00000000E+00
  0.00000000E+00  0.00000000E+00  0.00000000E+00
  0.00000000E+00  0.00000000E+00  0.00000000E+00
  0.00000000E+00  0.00000000E+00  0.00000000E+00
  0.00000000E+00  0.00000000E+00  0.00000000E+00
  0.00000000E+00  0.00000000E+00  0.00000000E+00
  0.00000000E+00  0.00000000E+00  0.00000000E+00
  0.00000000E+00  0.00000000E+00  0.00000000E+00
  0.00000000E+00  0.00000000E+00  0.00000000E+00
