Diamond                                 
   3.56700000000000     
     0.5109756793906068    0.5109756793906068    0.0000000000000000
     0.0000000000000000    0.5109756793906068    0.5109756793906068
     0.5109756793906068   -0.0000000000000000    0.5109756793906068
   C 
     2
Direct
  0.0000000000000000  0.0000000000000000  0.0000000000000000
  0.2500000000000000  0.2500000000000000  0.2500000000000000
 
  0.00000000E+00  0.00000000E+00  0.00000000E+00
  0.00000000E+00  0.00000000E+00  0.00000000E+00
