Real silicon (diamond-like)
 5.5
0.0 0.5 0.5
0.5 0.0 0.5
0.5 0.5 0.0
  2
Direct
  -0.125 -0.125 -0.125
  +0.125 +0.125 +0.125
